;symbolic execution tree
(push)
(assert (le x1 java.lang.String))
(check-sat)
(push)
(assert (le x1 java.lang.String))
(check-sat)
(push)
(assert (le x1 java.lang.String))
(check-sat)
(pop)
(push)
(assert (not (le x1 java.lang.String)))
(check-sat)
(pop)
(push)
(assert (le x2 weka.core.Instances))
(check-sat)
(push)
(assert (le x0 weka.core.Instances))
(check-sat)
(pop)
(push)
(assert (not (le x0 weka.core.Instances)))
(check-sat)
(push)
(assert (le x3 weka.core.AttributeLocator))
(check-sat)
(pop)
(push)
(assert (not (le x3 weka.core.AttributeLocator)))
(check-sat)
(pop)
(pop)
(pop)
(push)
(assert (not (le x2 weka.core.Instances)))
(check-sat)
(pop)
(pop)
(push)
(assert (not (le x1 java.lang.String)))
(check-sat)
(pop)
(push)
(assert (le x3 weka.core.Queue_currencysign_QueueNode))
(check-sat)
(push)
(assert (le x0 java.lang.StringBuilder))
(check-sat)
(pop)
(push)
(assert (not (le x0 java.lang.StringBuilder)))
(check-sat)
(pop)
(push)
(assert (le x3 weka.core.Queue_currencysign_QueueNode))
(check-sat)
(push)
(assert (le x3 weka.core.Queue_currencysign_QueueNode))
(check-sat)
(push)
(assert (le x2 java.lang.String))
(check-sat)
(pop)
(push)
(assert (not (le x2 java.lang.String)))
(check-sat)
(pop)
(push)
(assert (le x3 weka.core.Queue_currencysign_QueueNode))
(check-sat)
(pop)
(push)
(assert (not (le x3 weka.core.Queue_currencysign_QueueNode)))
(check-sat)
(pop)
(pop)
(push)
(assert (not (le x3 weka.core.Queue_currencysign_QueueNode)))
(check-sat)
(pop)
(pop)
(push)
(assert (not (le x3 weka.core.Queue_currencysign_QueueNode)))
(check-sat)
(pop)
(pop)
(push)
(assert (not (le x3 weka.core.Queue_currencysign_QueueNode)))
(check-sat)
(pop)
(push)
(assert (le x3 java.util.Vector))
(check-sat)
(push)
(assert (le x0 weka.core.AttributeLocator))
(check-sat)
(pop)
(push)
(assert (not (le x0 weka.core.AttributeLocator)))
(check-sat)
(pop)
(push)
(assert (le x1 java.lang.String))
(check-sat)
(push)
(assert (le x2 weka.core.AttributeLocator))
(check-sat)
(pop)
(push)
(assert (not (le x2 weka.core.AttributeLocator)))
(check-sat)
(pop)
(pop)
(push)
(assert (not (le x1 java.lang.String)))
(check-sat)
(pop)
(push)
(assert (le x1 java.lang.String))
(check-sat)
(push)
(assert (le x3 java.util.Vector))
(check-sat)
(pop)
(push)
(assert (not (le x3 java.util.Vector)))
(check-sat)
(pop)
(pop)
(push)
(assert (not (le x1 java.lang.String)))
(check-sat)
(pop)
(pop)
(push)
(assert (not (le x3 java.util.Vector)))
(check-sat)
(push)
(assert (le x1 java.lang.String))
(check-sat)
(pop)
(push)
(assert (not (le x1 java.lang.String)))
(check-sat)
(pop)
(pop)
(push)
(assert (le x3 java.lang.String))
(check-sat)
(push)
(assert (le x1 java.lang.String))
(check-sat)
(push)
(assert (le x0 weka.core.Instances))
(check-sat)
(pop)
(push)
(assert (not (le x0 weka.core.Instances)))
(check-sat)
(pop)
(pop)
(push)
(assert (not (le x1 java.lang.String)))
(check-sat)
(pop)
(pop)
(push)
(assert (not (le x3 java.lang.String)))
(check-sat)
(push)
(assert (le x3 java.lang.String))
(check-sat)
(pop)
(push)
(assert (not (le x3 java.lang.String)))
(check-sat)
(push)
(assert (le x1 java.lang.String))
(check-sat)
(pop)
(push)
(assert (not (le x1 java.lang.String)))
(check-sat)
(pop)
(push)
(assert (le x3 java.lang.String))
(check-sat)
(pop)
(push)
(assert (not (le x3 java.lang.String)))
(check-sat)
(pop)
(pop)
(push)
(assert (le x0 weka.core.Instance))
(check-sat)
(pop)
(push)
(assert (not (le x0 weka.core.Instance)))
(check-sat)
(pop)
(pop)
(push)
(assert (le x1 java.lang.String))
(check-sat)
(push)
(assert (le x2 weka.core.Instance))
(check-sat)
(push)
(assert (le x1 java.lang.String))
(check-sat)
(pop)
(push)
(assert (not (le x1 java.lang.String)))
(check-sat)
(pop)
(push)
(assert (le x2 weka.core.FastVector))
(check-sat)
(pop)
(push)
(assert (le x2 weka.core.SparseInstance))
(check-sat)
(pop)
(push)
(assert (le x2 weka.core.Instance))
(check-sat)
(push)
(assert (not (le x2 weka.core.SparseInstance)))
(check-sat)
(push)
(assert (le x3 weka.core.Instance))
(check-sat)
(pop)
(push)
(assert (not (le x3 weka.core.Instance)))
(check-sat)
(pop)
(pop)
(pop)
(push)
(assert (le x2 weka.core.Attribute))
(check-sat)
(pop)
(push)
(assert (le x1 java.lang.String))
(check-sat)
(pop)
(push)
(assert (not (le x1 java.lang.String)))
(check-sat)
(pop)
(push)
(assert (le x3 java.lang.String))
(check-sat)
(push)
(assert (le x2 weka.core.SparseInstance))
(check-sat)
(pop)
(push)
(assert (le x2 weka.core.Instance))
(check-sat)
(push)
(assert (not (le x2 weka.core.SparseInstance)))
(check-sat)
(pop)
(pop)
(push)
(assert (le x0 weka.core.Instance))
(check-sat)
(pop)
(push)
(assert (not (le x0 weka.core.Instance)))
(check-sat)
(pop)
(pop)
(push)
(assert (not (le x3 java.lang.String)))
(check-sat)
(pop)
(push)
(assert (le x0 weka.core.Instance))
(check-sat)
(push)
(assert (le x3 java.lang.String))
(check-sat)
(pop)
(push)
(assert (not (le x3 java.lang.String)))
(check-sat)
(pop)
(pop)
(push)
(assert (not (le x0 weka.core.Instance)))
(check-sat)
(push)
(assert (le x2 weka.core.Instance))
(check-sat)
(pop)
(push)
(assert (not (le x2 weka.core.Instance)))
(check-sat)
(pop)
(pop)
(pop)
(push)
(assert (not (le x2 weka.core.Instance)))
(check-sat)
(pop)
(push)
(assert (le x1 java.lang.String))
(check-sat)
(push)
(assert (le x1 java.lang.String))
(check-sat)
(push)
(assert (le x1 java.lang.String))
(check-sat)
(pop)
(push)
(assert (not (le x1 java.lang.String)))
(check-sat)
(pop)
(pop)
(push)
(assert (not (le x1 java.lang.String)))
(check-sat)
(pop)
(pop)
(push)
(assert (not (le x1 java.lang.String)))
(check-sat)
(pop)
(push)
(assert (le x2 java.lang.StringBuffer))
(check-sat)
(pop)
(push)
(assert (not (le x2 java.lang.StringBuffer)))
(check-sat)
(pop)
(push)
(assert (le x2 weka.core.Instances))
(check-sat)
(pop)
(push)
(assert (not (le x2 weka.core.Instances)))
(check-sat)
(pop)
(push)
(assert (le x2 java.lang.Double))
(check-sat)
(pop)
(push)
(assert (not (le x2 java.lang.Double)))
(check-sat)
(pop)
(push)
(assert (le x1 java.lang.String))
(check-sat)
(pop)
(push)
(assert (not (le x1 java.lang.String)))
(check-sat)
(pop)
(push)
(assert (le x0 weka.core.Instances))
(check-sat)
(pop)
(push)
(assert (not (le x0 weka.core.Instances)))
(check-sat)
(pop)
(push)
(assert (le x0 java.util.HashSet))
(check-sat)
(pop)
(push)
(assert (not (le x0 java.util.HashSet)))
(check-sat)
(pop)
(push)
(assert (le x0 weka.core.Instances))
(check-sat)
(push)
(assert (le x0 weka.core.Instances))
(check-sat)
(pop)
(push)
(assert (not (le x0 weka.core.Instances)))
(check-sat)
(pop)
(pop)
(push)
(assert (not (le x0 weka.core.Instances)))
(check-sat)
(push)
(assert (le x3 java.util.Vector))
(check-sat)
(pop)
(push)
(assert (not (le x3 java.util.Vector)))
(check-sat)
(pop)
(pop)
(push)
(assert (le x0 java.lang.StringBuilder))
(check-sat)
(pop)
(push)
(assert (not (le x0 java.lang.StringBuilder)))
(check-sat)
(push)
(assert (le x2 weka.core.Instance))
(check-sat)
(pop)
(push)
(assert (not (le x2 weka.core.Instance)))
(check-sat)
(pop)
(pop)
(push)
(assert (le x0 weka.core.Instance))
(check-sat)
(push)
(assert (le x3 java.lang.Boolean))
(check-sat)
(pop)
(push)
(assert (not (le x3 java.lang.Boolean)))
(check-sat)
(pop)
(pop)
(push)
(assert (not (le x0 weka.core.Instance)))
(check-sat)
(push)
(assert (le x3 java.lang.Boolean))
(check-sat)
(pop)
(push)
(assert (not (le x3 java.lang.Boolean)))
(check-sat)
(pop)
(push)
(assert (le x3 java.lang.String))
(check-sat)
(pop)
(push)
(assert (not (le x3 java.lang.String)))
(check-sat)
(pop)
(pop)
(push)
(assert (le x3 java.lang.Boolean))
(check-sat)
(pop)
(push)
(assert (not (le x3 java.lang.Boolean)))
(check-sat)
(pop)
(push)
(assert (le x2 weka.core.Instances))
(check-sat)
(pop)
(push)
(assert (not (le x2 weka.core.Instances)))
(check-sat)
(pop)
(push)
(assert (le x3 java.lang.String))
(check-sat)
(pop)
(push)
(assert (not (le x3 java.lang.String)))
(check-sat)
(push)
(assert (le x2 weka.core.Instances))
(check-sat)
(pop)
(push)
(assert (not (le x2 weka.core.Instances)))
(check-sat)
(pop)
(push)
(assert (le x0 weka.core.converters.ConverterUtils_currencysign_DataSource))
(check-sat)
(pop)
(push)
(assert (not (le x0 weka.core.converters.ConverterUtils_currencysign_DataSource)))
(check-sat)
(pop)
(pop)
(push)
(assert (le x2 weka.core.Instances))
(check-sat)
(pop)
(push)
(assert (not (le x2 weka.core.Instances)))
(check-sat)
(pop)
(push)
(assert (le x0 java.util.Vector))
(check-sat)
(pop)
(push)
(assert (not (le x0 java.util.Vector)))
(check-sat)
(pop)
(push)
(assert (le x0 java.util.Vector))
(check-sat)
(pop)
(push)
(assert (not (le x0 java.util.Vector)))
(check-sat)
(pop)
(pop)
(push)
(assert (not (le x1 java.lang.String)))
(check-sat)
(pop)
(push)
(assert (le x0 java.util.Vector))
(check-sat)
(pop)
(push)
(assert (not (le x0 java.util.Vector)))
(check-sat)
(pop)
(push)
(assert (le x2 weka.core.Instances))
(check-sat)
(pop)
(push)
(assert (not (le x2 weka.core.Instances)))
(check-sat)
(push)
(assert (le x2 weka.core.Instances))
(check-sat)
(pop)
(push)
(assert (not (le x2 weka.core.Instances)))
(check-sat)
(pop)
(push)
(assert (le x3 weka.core.Queue_currencysign_QueueNode))
(check-sat)
(pop)
(push)
(assert (not (le x3 weka.core.Queue_currencysign_QueueNode)))
(check-sat)
(pop)
(push)
(assert (le x1 java.lang.String))
(check-sat)
(pop)
(push)
(assert (not (le x1 java.lang.String)))
(check-sat)
(pop)
(pop)
(push)
(assert (le x2 weka.core.Instances))
(check-sat)
(pop)
(push)
(assert (not (le x2 weka.core.Instances)))
(check-sat)
(pop)
(push)
(assert (le x2 java.lang.StringBuilder))
(check-sat)
(pop)
(push)
(assert (not (le x2 java.lang.StringBuilder)))
(check-sat)
(push)
(assert (le x0 weka.core.Instances))
(check-sat)
(push)
(assert (le x0 weka.core.Instances))
(check-sat)
(pop)
(push)
(assert (not (le x0 weka.core.Instances)))
(check-sat)
(pop)
(pop)
(push)
(assert (not (le x0 weka.core.Instances)))
(check-sat)
(push)
(assert (le x2 java.lang.StringBuilder))
(check-sat)
(pop)
(push)
(assert (not (le x2 java.lang.StringBuilder)))
(check-sat)
(pop)
(pop)
(pop)
(push)
(assert (le x3 weka.core.Queue_currencysign_QueueNode))
(check-sat)
(push)
(assert (le x0 java.lang.StringBuilder))
(check-sat)
(push)
(assert (le x1 java.lang.String))
(check-sat)
(push)
(assert (le x1 java.lang.String))
(check-sat)
(pop)
(push)
(assert (not (le x1 java.lang.String)))
(check-sat)
(pop)
(pop)
(push)
(assert (not (le x1 java.lang.String)))
(check-sat)
(pop)
(push)
(assert (le x3 weka.core.Queue_currencysign_QueueNode))
(check-sat)
(push)
(assert (le x0 java.lang.StringBuilder))
(check-sat)
(pop)
(push)
(assert (not (le x0 java.lang.StringBuilder)))
(check-sat)
(pop)
(pop)
(push)
(assert (not (le x3 weka.core.Queue_currencysign_QueueNode)))
(check-sat)
(pop)
(pop)
(push)
(assert (not (le x0 java.lang.StringBuilder)))
(check-sat)
(pop)
(push)
(assert (le x0 java.lang.String))
(check-sat)
(pop)
(push)
(assert (not (le x0 java.lang.String)))
(check-sat)
(push)
(assert (le x0 java.lang.String))
(check-sat)
(pop)
(push)
(assert (not (le x0 java.lang.String)))
(check-sat)
(pop)
(push)
(assert (le x2 weka.core.Queue_currencysign_QueueNode))
(check-sat)
(pop)
(push)
(assert (not (le x2 weka.core.Queue_currencysign_QueueNode)))
(check-sat)
(pop)
(pop)
(push)
(assert (le x1 java.lang.String))
(check-sat)
(push)
(assert (le x3 weka.core.Queue_currencysign_QueueNode))
(check-sat)
(pop)
(push)
(assert (not (le x3 weka.core.Queue_currencysign_QueueNode)))
(check-sat)
(pop)
(pop)
(push)
(assert (not (le x1 java.lang.String)))
(check-sat)
(pop)
(pop)
(push)
(assert (not (le x3 weka.core.Queue_currencysign_QueueNode)))
(check-sat)
(pop)
(push)
(assert (le x1 java.lang.String))
(check-sat)
(push)
(assert (le x0 weka.core.Instances))
(check-sat)
(pop)
(push)
(assert (not (le x0 weka.core.Instances)))
(check-sat)
(pop)
(pop)
(push)
(assert (not (le x1 java.lang.String)))
(check-sat)
(pop)
(pop)
(push)
(assert (not (le x1 java.lang.String)))
(check-sat)
(pop)
